proyfinal/src/viki/013/experimentInOfficeAgust.take6.output/aefebc8e-75f1-4ae3-a366-ecdc29467d88.als.out
Reading from standard input... Use '--help' for help.
============================[ Problem Statistics ]=============================
|                                                                             |
|  Number of variables:         87638                                         |
|  Number of clauses:          161767                                         |
|  Parse time:                   0.03 s                                       |
|                                                                             |
============================[ Search Statistics ]==============================
| Conflicts |          ORIGINAL         |          LEARNT          | Progress |
|           |    Vars  Clauses Literals |    Limit  Clauses Lit/Cl |          |
===============================================================================
|       100 |   63781   110293   275370 |    40440      100     16 | 27.222 % |
|       250 |   63781   110293   275370 |    44484      250     24 | 27.222 % |
|       475 |   63725   110185   275123 |    48933      473     28 | 27.286 % |
|       812 |   63725   110065   274840 |    53826      810     37 | 27.286 % |
|      1318 |   63724   110021   274750 |    59209     1314     54 | 27.287 % |
|      2077 |   63724   110021   274750 |    65130     2073     68 | 27.287 % |
|      3216 |   63706   109951   274581 |    71643     3209    112 | 27.308 % |
|      4924 |   63706   109951   274581 |    78807     4917     95 | 27.308 % |
|      7486 |   63706   109951   274581 |    86688     7479     91 | 27.308 % |
|     11330 |   63680   109808   274269 |    95357    10877     90 | 27.338 % |
===============================================================================
restarts              : 61
conflicts             : 14070          (7459 /sec)
decisions             : 65552          (0.00 % random) (34751 /sec)
propagations          : 20524134       (10880441 /sec)
conflict literals     : 1403969        (36.88 % deleted)
Memory used           : 35.38 MB
CPU time              : 1.88633 s

INDETERMINATE
